;test regex sed -r 's/^(.{9})(.{10,20})(.*)$/\1\n\2\n\3/' | sed -e '2s/./X/g' -e 'N;N;s/\n//g'
(declare-const X String)
(assert (str.in_re X (re.union (re.++ (re.++ (re.++ (str.to_re "s") (re.++ (str.to_re "e") (re.++ (str.to_re "d") (re.++ (str.to_re " ") (re.++ (str.to_re "-") (re.++ (str.to_re "r") (re.++ (str.to_re " ") (re.++ (str.to_re "\u{27}") (re.++ (str.to_re "s") (str.to_re "/")))))))))) (re.++ (str.to_re "") (re.++ ((_ re.loop 9 9) (re.diff re.allchar (str.to_re "\n"))) (re.++ ((_ re.loop 10 20) (re.diff re.allchar (str.to_re "\n"))) (re.* (re.diff re.allchar (str.to_re "\n"))))))) (re.++ (str.to_re "") (re.++ (str.to_re "/") (re.++ (_ re.reference 1) (re.++ (str.to_re "\u{0a}") (re.++ (_ re.reference 2) (re.++ (str.to_re "\u{0a}") (re.++ (_ re.reference 3) (re.++ (str.to_re "/") (re.++ (str.to_re "\u{27}") (str.to_re " "))))))))))) (re.++ (str.to_re " ") (re.++ (str.to_re "s") (re.++ (str.to_re "e") (re.++ (str.to_re "d") (re.++ (str.to_re " ") (re.++ (str.to_re "-") (re.++ (str.to_re "e") (re.++ (str.to_re " ") (re.++ (str.to_re "\u{27}") (re.++ (str.to_re "2") (re.++ (str.to_re "s") (re.++ (str.to_re "/") (re.++ (re.diff re.allchar (str.to_re "\n")) (re.++ (str.to_re "/") (re.++ (str.to_re "X") (re.++ (str.to_re "/") (re.++ (str.to_re "g") (re.++ (str.to_re "\u{27}") (re.++ (str.to_re " ") (re.++ (str.to_re "-") (re.++ (str.to_re "e") (re.++ (str.to_re " ") (re.++ (str.to_re "\u{27}") (re.++ (str.to_re "N") (re.++ (str.to_re ";") (re.++ (str.to_re "N") (re.++ (str.to_re ";") (re.++ (str.to_re "s") (re.++ (str.to_re "/") (re.++ (str.to_re "\u{0a}") (re.++ (str.to_re "/") (re.++ (str.to_re "/") (re.++ (str.to_re "g") (str.to_re "\u{27}")))))))))))))))))))))))))))))))))))))
; sanitize danger characters:  < > ' " &
(assert (not (str.in_re X (re.++ re.all (re.union (str.to_re "\u{3c}") (str.to_re "\u{3e}") (str.to_re "\u{27}") (str.to_re "\u{22}") (str.to_re "\u{26}")) re.all))))
(assert (< 9 (str.len X)))
(check-sat)
(get-model)